Problem:    cuestionario
Rows:       4
Columns:    4
Non-zeros:  14
Status:     OPTIMAL
Objective:  z = 32.11538462 (MINimum)

   No.   Row name   St   Activity     Lower bound   Upper bound    Marginal
------ ------------ -- ------------- ------------- ------------- -------------
     1 z            B        32.1154                             
     2 procEq1      NS            46            46             =      -3.30769 
     3 procEq2      NS            15            15             =    -0.0384615 
     4 procEq3      NS            89            89             =       2.07692 

   No. Column name  St   Activity     Lower bound   Upper bound    Marginal
------ ------------ -- ------------- ------------- ------------- -------------
     1 x1           B        15.3846             0               
     2 x2           NL             0             0                     15.9615 
     3 x3           B        6.57692             0               
     4 x4           B        7.88462             0               

Karush-Kuhn-Tucker optimality conditions:

KKT.PE: max.abs.err = 0.00e+00 on row 0
        max.rel.err = 0.00e+00 on row 0
        High quality

KKT.PB: max.abs.err = 0.00e+00 on row 0
        max.rel.err = 0.00e+00 on row 0
        High quality

KKT.DE: max.abs.err = 0.00e+00 on column 0
        max.rel.err = 0.00e+00 on column 0
        High quality

KKT.DB: max.abs.err = 0.00e+00 on row 0
        max.rel.err = 0.00e+00 on row 0
        High quality

End of output
